(set-logic QF_S)
(declare-fun var0 () String)
(declare-fun var1 () String)
(declare-fun var2 () String)
(assert (= var0 (str.++ "LIxgt" (str.++ var1 ""))))
(assert (= var0 (str.++ "\\I)9R" (str.++ var2 ""))))
(check-sat)